; Automatically generated by map2smt

(set-logic HORN)

(declare-datatypes ((listOfInt 0) )
(((conslistOfInt (headlistOfInt Int) (taillistOfInt listOfInt)) (nillistOfInt))))



(declare-fun adt_new1 (listOfInt listOfInt Bool) Bool)
(declare-fun last (listOfInt Int) Bool)
(declare-fun leq (Int Int Bool) Bool)
(declare-fun butlast (listOfInt listOfInt) Bool)
(declare-fun append (listOfInt listOfInt listOfInt) Bool)
(declare-fun ff () Bool)

(assert
  (forall ( (A Int) )
    (last (conslistOfInt A nillistOfInt) A)
  )
)
(assert
  (forall ( (A Int) (B Int) (C listOfInt) (D Int) )
    (=>
      (last (conslistOfInt B C) D)
      (last (conslistOfInt A (conslistOfInt B C)) D)
    )
  )
)
(assert
  (forall ( (A Int) (B listOfInt) (C Bool) )
    (=>
      (= C false)
      (adt_new1 nillistOfInt (conslistOfInt A B) C)
    )
  )
)
(assert
  (forall ( (A Int) (B listOfInt) (C Bool) )
    (=>
      (= C false)
      (adt_new1 (conslistOfInt A B) nillistOfInt C)
    )
  )
)
(assert
  (forall ( (A Bool) )
    (=>
      (= A true)
      (adt_new1 nillistOfInt nillistOfInt A)
    )
  )
)
(assert
  (forall ( (A Int) (B listOfInt) (C Int) (D listOfInt) (E Bool) )
    (=>
      (and
        (= E false)
        (>= (- C A) 1)
      )
      (adt_new1 (conslistOfInt A B) (conslistOfInt C D) E)
    )
  )
)
(assert
  (forall ( (A Int) (B listOfInt) (C Int) (D listOfInt) (E Bool) )
    (=>
      (and
        (= E false)
        (<= (- C A) (- 1))
      )
      (adt_new1 (conslistOfInt A B) (conslistOfInt C D) E)
    )
  )
)
(assert
  (forall ( (A Int) (B listOfInt) (C listOfInt) (D Bool) )
    (=>
      (adt_new1 B C D)
      (adt_new1 (conslistOfInt A B) (conslistOfInt A C) D)
    )
  )
)
(assert
    (butlast nillistOfInt nillistOfInt)
)
(assert
  (forall ( (A Int) )
    (butlast (conslistOfInt A nillistOfInt) nillistOfInt)
  )
)
(assert
  (forall ( (A Int) (B Int) (C listOfInt) (D listOfInt) )
    (=>
      (butlast (conslistOfInt B C) D)
      (butlast (conslistOfInt A (conslistOfInt B C)) (conslistOfInt A D))
    )
  )
)
(assert
  (forall ( (A listOfInt) )
    (append nillistOfInt A A)
  )
)
(assert
  (forall ( (A Int) (B listOfInt) (C listOfInt) (D listOfInt) )
    (=>
      (append B C D)
      (append (conslistOfInt A B) C (conslistOfInt A D))
    )
  )
)
(assert
  (forall ( (A Bool) (B listOfInt) (C listOfInt) (D listOfInt) (E listOfInt) )
    (=>
      (and
        (= A false)
        (append B nillistOfInt C)
        (butlast C D)
        (butlast B E)
        (adt_new1 D E A)
      )
      ff
    )
  )
)
(assert
  (forall ( (A Bool) (B listOfInt) (C Int) (D listOfInt) (E listOfInt) (F listOfInt) (G listOfInt) (H listOfInt) )
    (=>
      (and
        (= A false)
        (append B (conslistOfInt C D) E)
        (butlast E F)
        (butlast (conslistOfInt C D) G)
        (append B G H)
        (adt_new1 F H A)
      )
      ff
    )
  )
)

(assert (not ff))
(check-sat)
